column=8;
row=8;
Board=[|5,0,0,0,4,0,0,0|3,0,0,0,0,0,4,2|0,0,0,1,0,3,0,0|0,7,0,6,1,0,3,0|0,8,5,4,0,0,1,0|0,0,0,0,0,4,0,0|0,0,3,8,0,0,0,0|0,0,0,2,0,1,8,4|];
horizontal=[|1,0,0,1,0,0,1|0,0,1,0,1,0,0|0,0,0,0,0,0,1|0,0,0,0,0,0,0|1,0,1,0,0,0,0|1,0,1,1,0,1,0|0,1,0,1,0,0,0|1,0,0,1,0,0,0|];
vertical=[|0,0,0,0,0,0,0,0|0,1,0,0,0,0,0,0|0,0,0,0,0,0,0,0|0,1,0,0,1,0,0,0|0,0,0,0,0,0,0,0|1,1,0,1,1,1,0,0|0,1,0,0,0,0,0,0|];
